NAME          DCAP_2_3_3_500_SS111
ROWS
 N  OBJ
 L  CON1
 L  CON2
 L  CON3
 L  CON4
 L  CON5
 L  CON6
 L  CON7
 L  CON8
 L  CON9
 L  CON10
 L  CON11
 L  CON12
 E  CON13
 E  CON14
 E  CON15
 E  CON16
 E  CON17
 E  CON18
 E  CON19
 E  CON20
 E  CON21
COLUMNS
    x[1,1]    OBJ       6.180167      CON1      1.000000    
    x[1,1]    CON7      -1.000000     CON8      -1.000000   
    x[1,1]    CON9      -1.000000   
    x[1,2]    OBJ       6.563535      CON2      1.000000    
    x[1,2]    CON8      -1.000000     CON9      -1.000000   
    x[1,3]    OBJ       7.443064      CON3      1.000000    
    x[1,3]    CON9      -1.000000   
    x[2,1]    OBJ       6.732585      CON4      1.000000    
    x[2,1]    CON10     -1.000000     CON11     -1.000000   
    x[2,1]    CON12     -1.000000   
    x[2,2]    OBJ       5.039546      CON5      1.000000    
    x[2,2]    CON11     -1.000000     CON12     -1.000000   
    x[2,3]    OBJ       6.054841      CON6      1.000000    
    x[2,3]    CON12     -1.000000   
    MARKER    'MARKER'                'INTORG'
    u[1,1]    OBJ       48.076654     CON1      -1.000000   
    u[1,2]    OBJ       20.066487     CON2      -1.000000   
    u[1,3]    OBJ       32.230043     CON3      -1.000000   
    u[2,1]    OBJ       49.996186     CON4      -1.000000   
    u[2,2]    OBJ       49.466655     CON5      -1.000000   
    u[2,3]    OBJ       27.484319     CON6      -1.000000   
    y[1,1,1]  OBJ       7.917511      CON7      1.238662    
    y[1,1,1]  CON13     1.000000    
    y[1,1,2]  OBJ       8.666467      CON8      0.620332    
    y[1,1,2]  CON14     1.000000    
    y[1,1,3]  OBJ       5.255487      CON9      0.662625    
    y[1,1,3]  CON15     1.000000    
    y[1,2,1]  OBJ       6.142281      CON7      1.176707    
    y[1,2,1]  CON16     1.000000    
    y[1,2,2]  OBJ       7.147768      CON8      1.418744    
    y[1,2,2]  CON17     1.000000    
    y[1,2,3]  OBJ       5.186416      CON9      0.657260    
    y[1,2,3]  CON18     1.000000    
    y[1,3,1]  OBJ       9.439422      CON7      0.637060    
    y[1,3,1]  CON19     1.000000    
    y[1,3,2]  OBJ       8.192648      CON8      1.471750    
    y[1,3,2]  CON20     1.000000    
    y[1,3,3]  OBJ       6.273987      CON9      1.156891    
    y[1,3,3]  CON21     1.000000    
    y[2,1,1]  OBJ       9.945292      CON10     1.238662    
    y[2,1,1]  CON13     1.000000    
    y[2,1,2]  OBJ       7.475166      CON11     0.620332    
    y[2,1,2]  CON14     1.000000    
    y[2,1,3]  OBJ       8.320715      CON12     0.662625    
    y[2,1,3]  CON15     1.000000    
    y[2,2,1]  OBJ       9.533243      CON10     1.176707    
    y[2,2,1]  CON16     1.000000    
    y[2,2,2]  OBJ       8.501357      CON11     1.418744    
    y[2,2,2]  CON17     1.000000    
    y[2,2,3]  OBJ       7.046648      CON12     0.657260    
    y[2,2,3]  CON18     1.000000    
    y[2,3,1]  OBJ       7.334594      CON10     0.637060    
    y[2,3,1]  CON19     1.000000    
    y[2,3,2]  OBJ       9.062024      CON11     1.471750    
    y[2,3,2]  CON20     1.000000    
    y[2,3,3]  OBJ       8.704404      CON12     1.156891    
    y[2,3,3]  CON21     1.000000    
    z[1,1]    OBJ       950.190764    CON13     1.000000    
    z[1,2]    OBJ       874.645968    CON14     1.000000    
    z[1,3]    OBJ       641.303614    CON15     1.000000    
    z[2,1]    OBJ       737.582890    CON16     1.000000    
    z[2,2]    OBJ       511.751713    CON17     1.000000    
    z[2,3]    OBJ       557.734840    CON18     1.000000    
    z[3,1]    OBJ       994.169289    CON19     1.000000    
    z[3,2]    OBJ       646.100231    CON20     1.000000    
    z[3,3]    OBJ       747.371582    CON21     1.000000    
    MARKER    'MARKER'                 'INTEND'
RHS
    RHS       CON1      -0.000000     CON2      -0.000000   
    RHS       CON3      -0.000000     CON4      -0.000000   
    RHS       CON5      -0.000000     CON6      -0.000000   
    RHS       CON7      -0.000000     CON8      -0.000000   
    RHS       CON9      -0.000000     CON10     -0.000000   
    RHS       CON11     -0.000000     CON12     -0.000000   
    RHS       CON13     1.000000      CON14     1.000000    
    RHS       CON15     1.000000      CON16     1.000000    
    RHS       CON17     1.000000      CON18     1.000000    
    RHS       CON19     1.000000      CON20     1.000000    
    RHS       CON21     1.000000    
BOUNDS
 BV BOUND     u[1,1]  
 BV BOUND     u[1,2]  
 BV BOUND     u[1,3]  
 BV BOUND     u[2,1]  
 BV BOUND     u[2,2]  
 BV BOUND     u[2,3]  
 BV BOUND     y[1,1,1]
 BV BOUND     y[1,1,2]
 BV BOUND     y[1,1,3]
 BV BOUND     y[1,2,1]
 BV BOUND     y[1,2,2]
 BV BOUND     y[1,2,3]
 BV BOUND     y[1,3,1]
 BV BOUND     y[1,3,2]
 BV BOUND     y[1,3,3]
 BV BOUND     y[2,1,1]
 BV BOUND     y[2,1,2]
 BV BOUND     y[2,1,3]
 BV BOUND     y[2,2,1]
 BV BOUND     y[2,2,2]
 BV BOUND     y[2,2,3]
 BV BOUND     y[2,3,1]
 BV BOUND     y[2,3,2]
 BV BOUND     y[2,3,3]
 BV BOUND     z[1,1]  
 BV BOUND     z[1,2]  
 BV BOUND     z[1,3]  
 BV BOUND     z[2,1]  
 BV BOUND     z[2,2]  
 BV BOUND     z[2,3]  
 BV BOUND     z[3,1]  
 BV BOUND     z[3,2]  
 BV BOUND     z[3,3]  
ENDATA
